Models_gurobi/lp/ReLUconvexe_Adv1.lp
\ Model Fischetti
\ LP format - for model browsing. Use MPS format to capture full model detail.
Minimize
  1.378802299499512 C2 + 1.621942639350891 C3 + 0 C4 + 0 C5 + 0 C6 + 0 C8
   + 0 C10 + 0 C11 + 0 C12 + 0 C13 + 0 C14 + 3.624080032110214 Constant
Subject To
 R0: C0 <= 5.364482879638672
 R1: C0 >= -1.235517263412476
 R2: C1 <= 5.278571128845215
 R3: C1 >= -1.321428537368774
 R4: - 2.879850149154663 C0 + 0.8426412343978882 C1 + C2
   >= 0.5241518020629883
 R5: - 1.941401858504072 C0 + 0.5680522158392239 C1 + C2
   <= 5.750487553746292
 R6: 1.255256772041321 C0 - 2.670398712158203 C1 + C3 >= 2.376555442810059
 R7: 0.7580563287523542 C0 - 1.612668172067846 C1 + C3 <= 7.63282064260944
 R8: - 3.975454568862915 C2 + 1.324205279350281 C3 - 22.5836181640625 C7
   >= -20.68188086152077
 R9: 1.528233051300049 C2 - 3.258546710014343 C3 - 22.5836181640625 C9
   >= -19.25573492050171
 R10: C7 + C9 >= 1
Bounds
 C0 >= -1.245517311096191
 C1 >= -1.33142858505249
 C2 >= -0.01
 C3 >= -0.01
 C4 >= -64.95319152832032
 C5 >= -11.76982093811035
 C6 >= -66.89665008544922
 C7 <= 1
 C8 <= 1
 C9 <= 1
 Constant = 1
End
